200
100
100
100
99
99
99
99
97
96
96
94
94
94
93
93
93
93
92
92
92
89
88
87
87
85
84
84
84
84
83
83
83
83
82
80
80
79
79
78
76
75
75
75
74
73
73
73
73
73
72
72
72
71
71
70
70
70
70
70
69
69
69
68
67
67
66
66
64
63
63
63
62
62
61
61
59
59
59
59
58
58
57
56
56
55
55
54
53
52
52
51
51
50
50
50
50
50
50
48
48
48
48
47
47
47
46
46
46
46
45
44
43
41
41
39
39
38
37
37
37
36
36
35
35
35
34
34
33
33
33
32
32
31
31
31
31
30
30
30
29
29
28
28
25
25
25
25
24
24
24
23
23
23
23
22
21
20
20
20
20
19
18
18
18
16
16
16
15
14
14
14
14
13
12
11
11
11
11
11
10
10
9
9
9
8
8
8
7
7
7
6
4
4
3
3
2
2
2
1
1
1
